words_hard_train/7843.qaiger
aag 148 16 0 1 132
2
4
10
18
48
56
82
90
116
124
150
158
192
196
200
214
297
6 2 4
8 7 2
12 4 10
14 5 11
16 13 15
20 17 19
22 16 18
24 21 23
26 7 25
28 6 24
30 27 29
32 31 19
34 30 18
36 33 35
38 9 37
40 8 36
42 39 41
44 41 35
46 29 23
50 15 48
52 14 49
54 51 53
58 55 57
60 54 56
62 59 61
64 46 63
66 47 62
68 65 67
70 69 57
72 68 56
74 71 73
76 45 74
78 77 73
80 67 61
84 53 82
86 52 83
88 85 87
92 89 91
94 88 90
96 93 95
98 80 97
100 81 96
102 99 101
104 103 91
106 102 90
108 105 107
110 79 108
112 111 107
114 101 95
118 87 116
120 86 117
122 119 121
126 123 125
128 122 124
130 127 129
132 114 131
134 115 130
136 133 135
138 137 125
140 136 124
142 139 141
144 113 142
146 145 141
148 135 129
152 121 150
154 120 151
156 153 155
160 157 159
162 156 158
164 161 163
166 148 165
168 149 164
170 167 169
172 171 159
174 170 158
176 173 175
178 146 177
180 147 176
182 179 181
184 42 182
186 112 143
188 187 145
190 184 188
194 191 192
198 154 197
202 198 201
204 199 200
206 203 205
208 169 163
210 155 196
212 211 199
216 213 215
218 212 214
220 217 219
222 209 220
224 223 219
226 207 224
228 206 225
230 227 229
232 181 175
234 208 221
236 235 223
238 237 215
240 236 214
242 239 241
244 233 242
246 245 241
248 231 247
250 230 246
252 249 251
254 195 253
256 5 193
258 255 257
260 232 243
262 261 245
264 42 263
266 4 192
268 267 253
270 265 269
272 259 270
274 44 75
276 275 77
278 182 277
280 78 109
282 281 111
284 263 283
286 284 277
288 287 193
290 279 289
292 188 283
294 290 293
296 272 294
i0 2 y2[0]
i1 1 x1[0]
i2 1 x1[1]
i3 2 y2[1]
i4 1 x1[2]
i5 2 y2[2]
i6 1 x1[3]
i7 2 y2[3]
i8 1 x1[4]
i9 2 y2[4]
i10 1 x1[5]
i11 2 y2[5]
i12 2 y1[7]
i13 1 x1[6]
i14 1 x1[7]
i15 2 y2[6]
o0 bool[0]
c
simplified
  !=
    >> 7
      2 y1
    add
      2 y2
      subtract
        2 y2
        1 x1
