words_hard_train/7843.qaiger.qdimacs
p cnf 148 397
a 2 98 100 5 41 75 24 58 0
e 1 3 4 6 7 8 9 10 11 12 13 14 15 16 17 18 19 20 21 22 23 25 26 27 28 29 30 31 32 33 34 35 36 37 38 39 40 42 43 44 45 46 47 48 49 50 51 52 53 54 55 56 57 59 60 61 62 63 64 65 66 67 68 69 70 71 72 73 74 76 77 78 79 80 81 82 83 84 85 86 87 88 89 90 91 92 93 94 95 96 97 99 101 102 103 104 105 106 107 108 109 110 111 112 113 114 115 116 117 118 119 120 121 122 123 124 125 126 127 128 129 130 131 132 133 134 135 136 137 138 139 140 141 142 143 144 145 146 147 148 0
-1 -2 3 0
1 -3 0
2 -3 0
3 -1 4 0
-3 -4 0
1 -4 0
-2 -5 6 0
2 -6 0
5 -6 0
2 5 7 0
-2 -7 0
-5 -7 0
6 7 8 0
-6 -8 0
-7 -8 0
8 9 10 0
-8 -10 0
-9 -10 0
-8 -9 11 0
8 -11 0
9 -11 0
10 11 12 0
-10 -12 0
-11 -12 0
3 12 13 0
-3 -13 0
-12 -13 0
-3 -12 14 0
3 -14 0
12 -14 0
13 14 15 0
-13 -15 0
-14 -15 0
15 9 16 0
-15 -16 0
-9 -16 0
-15 -9 17 0
15 -17 0
9 -17 0
16 17 18 0
-16 -18 0
-17 -18 0
4 18 19 0
-4 -19 0
-18 -19 0
-4 -18 20 0
4 -20 0
18 -20 0
19 20 21 0
-19 -21 0
-20 -21 0
20 17 22 0
-20 -22 0
-17 -22 0
14 11 23 0
-14 -23 0
-11 -23 0
7 -24 25 0
-7 -25 0
24 -25 0
-7 24 26 0
7 -26 0
-24 -26 0
25 26 27 0
-25 -27 0
-26 -27 0
27 28 29 0
-27 -29 0
-28 -29 0
-27 -28 30 0
27 -30 0
28 -30 0
29 30 31 0
-29 -31 0
-30 -31 0
-23 31 32 0
23 -32 0
-31 -32 0
23 -31 33 0
-23 -33 0
31 -33 0
32 33 34 0
-32 -34 0
-33 -34 0
34 28 35 0
-34 -35 0
-28 -35 0
-34 -28 36 0
34 -36 0
28 -36 0
35 36 37 0
-35 -37 0
-36 -37 0
22 -37 38 0
-22 -38 0
37 -38 0
38 36 39 0
-38 -39 0
-36 -39 0
33 30 40 0
-33 -40 0
-30 -40 0
26 -41 42 0
-26 -42 0
41 -42 0
-26 41 43 0
26 -43 0
-41 -43 0
42 43 44 0
-42 -44 0
-43 -44 0
44 45 46 0
-44 -46 0
-45 -46 0
-44 -45 47 0
44 -47 0
45 -47 0
46 47 48 0
-46 -48 0
-47 -48 0
-40 48 49 0
40 -49 0
-48 -49 0
40 -48 50 0
-40 -50 0
48 -50 0
49 50 51 0
-49 -51 0
-50 -51 0
51 45 52 0
-51 -52 0
-45 -52 0
-51 -45 53 0
51 -53 0
45 -53 0
52 53 54 0
-52 -54 0
-53 -54 0
39 -54 55 0
-39 -55 0
54 -55 0
55 53 56 0
-55 -56 0
-53 -56 0
50 47 57 0
-50 -57 0
-47 -57 0
43 -58 59 0
-43 -59 0
58 -59 0
-43 58 60 0
43 -60 0
-58 -60 0
59 60 61 0
-59 -61 0
-60 -61 0
61 62 63 0
-61 -63 0
-62 -63 0
-61 -62 64 0
61 -64 0
62 -64 0
63 64 65 0
-63 -65 0
-64 -65 0
-57 65 66 0
57 -66 0
-65 -66 0
57 -65 67 0
-57 -67 0
65 -67 0
66 67 68 0
-66 -68 0
-67 -68 0
68 62 69 0
-68 -69 0
-62 -69 0
-68 -62 70 0
68 -70 0
62 -70 0
69 70 71 0
-69 -71 0
-70 -71 0
56 -71 72 0
-56 -72 0
71 -72 0
72 70 73 0
-72 -73 0
-70 -73 0
67 64 74 0
-67 -74 0
-64 -74 0
60 -75 76 0
-60 -76 0
75 -76 0
-60 75 77 0
60 -77 0
-75 -77 0
76 77 78 0
-76 -78 0
-77 -78 0
78 79 80 0
-78 -80 0
-79 -80 0
-78 -79 81 0
78 -81 0
79 -81 0
80 81 82 0
-80 -82 0
-81 -82 0
-74 82 83 0
74 -83 0
-82 -83 0
74 -82 84 0
-74 -84 0
82 -84 0
83 84 85 0
-83 -85 0
-84 -85 0
85 79 86 0
-85 -86 0
-79 -86 0
-85 -79 87 0
85 -87 0
79 -87 0
86 87 88 0
-86 -88 0
-87 -88 0
-73 88 89 0
73 -89 0
-88 -89 0
73 -88 90 0
-73 -90 0
88 -90 0
89 90 91 0
-89 -91 0
-90 -91 0
-21 -91 92 0
21 -92 0
91 -92 0
-56 71 93 0
56 -93 0
-71 -93 0
93 72 94 0
-93 -94 0
-72 -94 0
-92 -94 95 0
92 -95 0
94 -95 0
95 -96 97 0
-95 -97 0
96 -97 0
-77 98 99 0
77 -99 0
-98 -99 0
-99 100 101 0
99 -101 0
-100 -101 0
99 -100 102 0
-99 -102 0
100 -102 0
101 102 103 0
-101 -103 0
-102 -103 0
84 81 104 0
-84 -104 0
-81 -104 0
77 -98 105 0
-77 -105 0
98 -105 0
105 99 106 0
-105 -106 0
-99 -106 0
106 107 108 0
-106 -108 0
-107 -108 0
-106 -107 109 0
106 -109 0
107 -109 0
108 109 110 0
-108 -110 0
-109 -110 0
104 -110 111 0
-104 -111 0
110 -111 0
111 109 112 0
-111 -112 0
-109 -112 0
103 -112 113 0
-103 -113 0
112 -113 0
-103 112 114 0
103 -114 0
-112 -114 0
113 114 115 0
-113 -115 0
-114 -115 0
90 87 116 0
-90 -116 0
-87 -116 0
-104 110 117 0
104 -117 0
-110 -117 0
117 111 118 0
-117 -118 0
-111 -118 0
118 107 119 0
-118 -119 0
-107 -119 0
-118 -107 120 0
118 -120 0
107 -120 0
119 120 121 0
-119 -121 0
-120 -121 0
116 -121 122 0
-116 -122 0
121 -122 0
122 120 123 0
-122 -123 0
-120 -123 0
115 123 124 0
-115 -124 0
-123 -124 0
-115 -123 125 0
115 -125 0
123 -125 0
124 125 126 0
-124 -126 0
-125 -126 0
97 126 127 0
-97 -127 0
-126 -127 0
2 96 128 0
-2 -128 0
-96 -128 0
127 128 129 0
-127 -129 0
-128 -129 0
-116 121 130 0
116 -130 0
-121 -130 0
130 122 131 0
-130 -131 0
-122 -131 0
-21 131 132 0
21 -132 0
-131 -132 0
-2 -96 133 0
2 -133 0
96 -133 0
133 126 134 0
-133 -134 0
-126 -134 0
132 134 135 0
-132 -135 0
-134 -135 0
129 -135 136 0
-129 -136 0
135 -136 0
-22 37 137 0
22 -137 0
-37 -137 0
137 38 138 0
-137 -138 0
-38 -138 0
-91 138 139 0
91 -139 0
-138 -139 0
-39 54 140 0
39 -140 0
-54 -140 0
140 55 141 0
-140 -141 0
-55 -141 0
131 141 142 0
-131 -142 0
-141 -142 0
-142 138 143 0
142 -143 0
-138 -143 0
143 96 144 0
-143 -144 0
-96 -144 0
139 144 145 0
-139 -145 0
-144 -145 0
-94 141 146 0
94 -146 0
-141 -146 0
-145 146 147 0
145 -147 0
-146 -147 0
-136 -147 148 0
136 -148 0
147 -148 0
-148 0
